HUN,8,6,303
1,24,3,22,4,24,2,29,0,27,5,30
3,22,2,23,5,28,0,21,4,28,1,23
1,24,2,29,3,23,5,26,4,22,0,29
5,28,4,23,3,26,2,22,0,21,1,26
2,29,1,27,4,28,0,28,3,28,5,30
5,28,1,21,0,29,2,28,4,21,3,30
4,22,2,29,3,29,5,23,0,30,1,22
4,30,3,27,2,23,1,29,0,22,5,21
